
Gurobi 6.5.2 (win64) logging started 07/23/16 02:30:45


Gurobi 6.5.2 (win64) logging started 07/23/16 02:30:45

Optimize a model with 6015 rows, 589 columns and 12557 nonzeros
Coefficient statistics:
  Matrix range    [1e+00, 1e+00]
  Objective range [7e+00, 4e+01]
  Bounds range    [1e+00, 1e+00]
  RHS range       [1e+00, 1e+00]
Found heuristic solution: objective -0
Presolve removed 5854 rows and 60 columns
Presolve time: 0.01s
Presolved: 161 rows, 529 columns, 1633 nonzeros
Variable types: 0 continuous, 529 integer (529 binary)

Root relaxation: objective 4.320000e+02, 80 iterations, 0.00 seconds

    Nodes    |    Current Node    |     Objective Bounds      |     Work
 Expl Unexpl |  Obj  Depth IntInf | Incumbent    BestBd   Gap | It/Node Time

*    0     0               0     432.0000000  432.00000  0.00%     -    0s

Explored 0 nodes (80 simplex iterations) in 0.01 seconds
Thread count was 8 (of 8 available processors)

Optimal solution found (tolerance 1.00e-04)
Best objective 4.320000000000e+02, best bound 4.320000000000e+02, gap 0.0%

Wrote requested result file 'H2\instance2\\Results2.lp'


Gurobi 6.5.2 (win64) logging started 07/24/16 16:41:33


Gurobi 6.5.2 (win64) logging started 07/24/16 16:41:33

Optimize a model with 3888 rows, 429 columns and 8153 nonzeros
Coefficient statistics:
  Matrix range    [1e+00, 1e+00]
  Objective range [2e+00, 4e+02]
  Bounds range    [1e+00, 1e+00]
  RHS range       [1e+00, 1e+00]
Found heuristic solution: objective -0
Presolve removed 3746 rows and 85 columns
Presolve time: 0.02s
Presolved: 142 rows, 344 columns, 1077 nonzeros
Variable types: 0 continuous, 344 integer (344 binary)

Root relaxation: objective 1.044000e+03, 88 iterations, 0.00 seconds

    Nodes    |    Current Node    |     Objective Bounds      |     Work
 Expl Unexpl |  Obj  Depth IntInf | Incumbent    BestBd   Gap | It/Node Time

*    0     0               0    1044.0000000 1044.00000  0.00%     -    0s

Explored 0 nodes (88 simplex iterations) in 0.03 seconds
Thread count was 8 (of 8 available processors)

Optimal solution found (tolerance 1.00e-04)
Best objective 1.044000000000e+03, best bound 1.044000000000e+03, gap 0.0%

Wrote requested result file 'H2\instance2\\Results2.lp'

